solution status: optimal solution found
objective value:                     149962.136453742
d11(0,0)                                            1 	(obj:0)
d11(1,1)                                            1 	(obj:0)
d11(2,4)                                            1 	(obj:0)
d11(2,5)                                            1 	(obj:0)
d11(2,7)                                            1 	(obj:0)
d11(2,8)                                            1 	(obj:0)
d11(2,10)                                           1 	(obj:0)
d11(2,11)                                           1 	(obj:0)
d11(3,13)                                           1 	(obj:0)
d11(3,14)                                           1 	(obj:0)
d11(3,16)                                           1 	(obj:0)
d11(3,17)                                           1 	(obj:0)
d11(3,19)                                           1 	(obj:0)
d11(3,20)                                           1 	(obj:0)
d11(3,22)                                           1 	(obj:0)
d11(3,23)                                           1 	(obj:0)
d11(3,25)                                           1 	(obj:0)
d11(3,26)                                           1 	(obj:0)
d11(3,28)                                           1 	(obj:0)
d11(3,29)                                           1 	(obj:0)
d11(3,31)                                           1 	(obj:0)
d11(3,32)                                           1 	(obj:0)
d11(3,34)                                           1 	(obj:0)
d11(3,35)                                           1 	(obj:0)
d11(3,37)                                           1 	(obj:0)
d11(3,38)                                           1 	(obj:0)
d11(4,40)                                           1 	(obj:0)
d11(4,41)                                           1 	(obj:0)
d11(4,43)                                           1 	(obj:0)
d11(4,44)                                           1 	(obj:0)
d11(4,46)                                           1 	(obj:0)
d11(4,47)                                           1 	(obj:0)
d11(4,49)                                           1 	(obj:0)
d11(4,50)                                           1 	(obj:0)
d11(4,52)                                           1 	(obj:0)
d11(4,53)                                           1 	(obj:0)
d11(4,55)                                           1 	(obj:0)
d11(4,56)                                           1 	(obj:0)
d11(4,58)                                           1 	(obj:0)
d11(4,59)                                           1 	(obj:0)
d11(4,61)                                           1 	(obj:0)
d11(4,62)                                           1 	(obj:0)
d11(4,64)                                           1 	(obj:0)
d11(4,65)                                           1 	(obj:0)
d11(4,67)                                           1 	(obj:0)
d11(4,70)                                           1 	(obj:0)
d11(4,71)                                           1 	(obj:0)
d11(4,73)                                           1 	(obj:0)
d11(4,74)                                           1 	(obj:0)
d11(4,76)                                           1 	(obj:0)
d11(4,79)                                           1 	(obj:0)
d11(4,80)                                           1 	(obj:0)
d11(4,82)                                           1 	(obj:0)
d11(4,83)                                           1 	(obj:0)
d11(4,85)                                           1 	(obj:0)
d11(4,86)                                           1 	(obj:0)
d11(4,88)                                           1 	(obj:0)
d11(4,89)                                           1 	(obj:0)
d11(4,91)                                           1 	(obj:0)
d11(4,92)                                           1 	(obj:0)
d11(4,94)                                           1 	(obj:0)
d11(4,95)                                           1 	(obj:0)
d11(4,97)                                           1 	(obj:0)
d11(4,98)                                           1 	(obj:0)
d11(4,100)                                          1 	(obj:0)
d11(4,101)                                          1 	(obj:0)
d11(4,103)                                          1 	(obj:0)
d11(4,104)                                          1 	(obj:0)
d11(4,106)                                          1 	(obj:0)
d11(4,107)                                          1 	(obj:0)
d11(4,109)                                          1 	(obj:0)
d11(4,112)                                          1 	(obj:0)
d11(4,113)                                          1 	(obj:0)
d11(4,115)                                          1 	(obj:0)
d11(4,116)                                          1 	(obj:0)
d11(4,118)                                          1 	(obj:0)
d11(4,119)                                          1 	(obj:0)
d12(1,3)                                            1 	(obj:0)
d12(2,6)                                            1 	(obj:0)
d12(2,9)                                            1 	(obj:0)
d12(2,12)                                           1 	(obj:0)
d12(3,18)                                           1 	(obj:0)
d12(3,21)                                           1 	(obj:0)
d12(3,24)                                           1 	(obj:0)
d12(3,27)                                           1 	(obj:0)
d12(3,30)                                           1 	(obj:0)
d12(3,33)                                           1 	(obj:0)
d12(3,36)                                           1 	(obj:0)
d12(3,39)                                           1 	(obj:0)
d12(4,42)                                           1 	(obj:0)
d12(4,45)                                           1 	(obj:0)
d12(4,48)                                           1 	(obj:0)
d12(4,51)                                           1 	(obj:0)
d12(4,54)                                           1 	(obj:0)
d12(4,57)                                           1 	(obj:0)
d12(4,60)                                           1 	(obj:0)
d12(4,63)                                           1 	(obj:0)
d12(4,66)                                           1 	(obj:0)
d12(4,69)                                           1 	(obj:0)
d12(4,72)                                           1 	(obj:0)
d12(4,75)                                           1 	(obj:0)
d12(4,78)                                           1 	(obj:0)
d12(4,81)                                           1 	(obj:0)
d12(4,84)                                           1 	(obj:0)
d12(4,87)                                           1 	(obj:0)
d12(4,90)                                           1 	(obj:0)
d12(4,93)                                           1 	(obj:0)
d12(4,96)                                           1 	(obj:0)
d12(4,99)                                           1 	(obj:0)
d12(4,102)                                          1 	(obj:0)
d12(4,105)                                          1 	(obj:0)
d12(4,108)                                          1 	(obj:0)
d12(4,111)                                          1 	(obj:0)
d12(4,114)                                          1 	(obj:0)
d12(4,117)                                          1 	(obj:0)
d12(4,120)                                          1 	(obj:0)
d21(3,13)                                           1 	(obj:0)
d21(3,14)                                           1 	(obj:0)
d21(3,15)                                           1 	(obj:0)
d21(3,16)                                           1 	(obj:0)
d21(3,17)                                           1 	(obj:0)
d21(3,19)                                           1 	(obj:0)
d21(3,22)                                           1 	(obj:0)
d21(3,23)                                           1 	(obj:0)
d21(3,25)                                           1 	(obj:0)
d21(3,31)                                           1 	(obj:0)
d21(4,40)                                           1 	(obj:0)
d21(4,41)                                           1 	(obj:0)
d21(4,42)                                           1 	(obj:0)
d21(4,43)                                           1 	(obj:0)
d21(4,44)                                           1 	(obj:0)
d21(4,45)                                           1 	(obj:0)
d21(4,46)                                           1 	(obj:0)
d21(4,47)                                           1 	(obj:0)
d21(4,49)                                           1 	(obj:0)
d21(4,50)                                           1 	(obj:0)
d21(4,51)                                           1 	(obj:0)
d21(4,52)                                           1 	(obj:0)
d21(4,53)                                           1 	(obj:0)
d21(4,55)                                           1 	(obj:0)
d21(4,58)                                           1 	(obj:0)
d21(4,59)                                           1 	(obj:0)
d21(4,60)                                           1 	(obj:0)
d21(4,61)                                           1 	(obj:0)
d21(4,67)                                           1 	(obj:0)
d21(4,68)                                           1 	(obj:0)
d21(4,69)                                           1 	(obj:0)
d21(4,70)                                           1 	(obj:0)
d21(4,71)                                           1 	(obj:0)
d21(4,73)                                           1 	(obj:0)
d21(4,76)                                           1 	(obj:0)
d21(4,77)                                           1 	(obj:0)
d21(4,79)                                           1 	(obj:0)
d21(4,85)                                           1 	(obj:0)
d21(4,94)                                           1 	(obj:0)
d21(4,95)                                           1 	(obj:0)
d21(4,96)                                           1 	(obj:0)
d21(4,97)                                           1 	(obj:0)
d21(4,103)                                          1 	(obj:0)
d21(4,106)                                          1 	(obj:0)
d21(4,112)                                          1 	(obj:0)
y2(4,102)                            960.592982999987 	(obj:0)
y2(4,105)                            960.592982999987 	(obj:0)
y2(4,108)                            960.592982999987 	(obj:0)
y2(4,111)                            960.592982999987 	(obj:0)
y2(4,114)                            960.592982999987 	(obj:0)
y2(4,117)                            960.592982999987 	(obj:0)
y2(4,120)                            960.592982999987 	(obj:0)
STE(1,1)                             7697.23399666665 	(obj:0)
STE(0,0)                                         9450 	(obj:0)
STE(1,2)                                         8694 	(obj:0)
STE(1,3)                             9606.56333384999 	(obj:0)
STE(2,4)                             5353.14054608473 	(obj:0)
STE(2,5)                             6349.90654941802 	(obj:0)
STE(2,6)                             7327.57624200081 	(obj:0)
STE(2,7)                             6349.90654941808 	(obj:0)
STE(2,8)                             7346.67255275135 	(obj:0)
STE(2,9)                             8324.34224533414 	(obj:0)
STE(2,10)                            7262.46988326807 	(obj:0)
STE(2,11)                            8259.23588660136 	(obj:0)
STE(2,12)                            9236.90557918413 	(obj:0)
STE(3,13)                            2574.90490948337 	(obj:0)
STE(3,14)                            3571.67091281666 	(obj:0)
STE(3,15)                            4597.14054608473 	(obj:0)
STE(3,16)                            3571.67091281666 	(obj:0)
STE(3,17)                            4568.43691614995 	(obj:0)
STE(3,18)                            5593.90654941801 	(obj:0)
STE(3,19)                            4549.34060539944 	(obj:0)
STE(3,20)                            5546.10660873274 	(obj:0)
STE(3,21)                            6571.57624200079 	(obj:0)
STE(3,22)                            3571.67091281672 	(obj:0)
STE(3,23)                            4568.43691615001 	(obj:0)
STE(3,24)                            5593.90654941809 	(obj:0)
STE(3,25)                            4568.43691614999 	(obj:0)
STE(3,26)                            5565.20291948328 	(obj:0)
STE(3,27)                            6590.67255275134 	(obj:0)
STE(3,28)                            5546.10660873278 	(obj:0)
STE(3,29)                            6542.87261206608 	(obj:0)
STE(3,30)                            7568.34224533413 	(obj:0)
STE(3,31)                            4484.23424666671 	(obj:0)
STE(3,32)                                  5481.00025 	(obj:0)
STE(3,33)                            6506.46988326807 	(obj:0)
STE(3,34)                                  5481.00025 	(obj:0)
STE(3,35)                            6477.76625333329 	(obj:0)
STE(3,36)                            7503.23588660136 	(obj:0)
STE(3,37)                            6458.66994258277 	(obj:0)
STE(3,38)                            7455.43594591606 	(obj:0)
STE(3,39)                            8480.90557918412 	(obj:0)
STE(4,40)                            822.138906150023 	(obj:0)
STE(4,41)                            1818.90490948337 	(obj:0)
STE(4,42)                            2731.46824333336 	(obj:0)
STE(4,43)                            1818.90490948331 	(obj:0)
STE(4,44)                            2815.67091281666 	(obj:0)
STE(4,45)                            3728.23424666665 	(obj:0)
STE(4,46)                            2844.37454275138 	(obj:0)
STE(4,47)                            3841.14054608473 	(obj:0)
STE(4,48)                            4753.70387993472 	(obj:0)
STE(4,49)                            1818.90490948331 	(obj:0)
STE(4,50)                            2815.67091281666 	(obj:0)
STE(4,51)                            3728.23424666665 	(obj:0)
STE(4,52)                             2815.6709128166 	(obj:0)
STE(4,53)                            3812.43691614995 	(obj:0)
STE(4,54)                            4725.00024999994 	(obj:0)
STE(4,55)                            3841.14054608466 	(obj:0)
STE(4,56)                            4837.90654941801 	(obj:0)
STE(4,57)                              5750.469883268 	(obj:0)
STE(4,58)                             2796.5746020661 	(obj:0)
STE(4,59)                            3793.34060539945 	(obj:0)
STE(4,60)                            4705.90393924943 	(obj:0)
STE(4,61)                            3793.34060539939 	(obj:0)
STE(4,62)                            4790.10660873274 	(obj:0)
STE(4,63)                            5702.66994258272 	(obj:0)
STE(4,64)                            4818.81023866744 	(obj:0)
STE(4,65)                            5815.57624200079 	(obj:0)
STE(4,66)                            6728.13957585078 	(obj:0)
STE(4,67)                            1818.90490948337 	(obj:0)
STE(4,68)                            2815.67091281672 	(obj:0)
STE(4,69)                            3728.23424666671 	(obj:0)
STE(4,70)                            2815.67091281666 	(obj:0)
STE(4,71)                            3812.43691615001 	(obj:0)
STE(4,72)                                  4725.00025 	(obj:0)
STE(4,73)                            3841.14054608474 	(obj:0)
STE(4,74)                            4837.90654941809 	(obj:0)
STE(4,75)                            5750.46988326807 	(obj:0)
STE(4,76)                            2815.67091281664 	(obj:0)
STE(4,77)                            3812.43691614999 	(obj:0)
STE(4,78)                            4725.00024999998 	(obj:0)
STE(4,79)                            3812.43691614993 	(obj:0)
STE(4,80)                            4809.20291948328 	(obj:0)
STE(4,81)                            5721.76625333327 	(obj:0)
STE(4,82)                            4837.90654941799 	(obj:0)
STE(4,83)                            5834.67255275134 	(obj:0)
STE(4,84)                            6747.23588660133 	(obj:0)
STE(4,85)                            3793.34060539943 	(obj:0)
STE(4,86)                            4790.10660873278 	(obj:0)
STE(4,87)                            5702.66994258277 	(obj:0)
STE(4,88)                            4790.10660873273 	(obj:0)
STE(4,89)                            5786.87261206608 	(obj:0)
STE(4,90)                            6699.43594591606 	(obj:0)
STE(4,91)                            5815.57624200078 	(obj:0)
STE(4,92)                            6812.34224533413 	(obj:0)
STE(4,93)                            7724.90557918412 	(obj:0)
STE(4,94)                            2731.46824333336 	(obj:0)
STE(4,95)                            3728.23424666671 	(obj:0)
STE(4,96)                             4640.7975805167 	(obj:0)
STE(4,97)                            3728.23424666665 	(obj:0)
STE(4,98)                                  4725.00025 	(obj:0)
STE(4,99)                            5637.56358384999 	(obj:0)
STE(4,100)                           4753.70387993472 	(obj:0)
STE(4,101)                           5750.46988326807 	(obj:0)
STE(4,102)                           6663.03321711806 	(obj:0)
STE(4,103)                           3728.23424666665 	(obj:0)
STE(4,104)                                 4725.00025 	(obj:0)
STE(4,105)                           5637.56358384999 	(obj:0)
STE(4,106)                           4725.00024999994 	(obj:0)
STE(4,107)                           5721.76625333329 	(obj:0)
STE(4,108)                           6634.32958718328 	(obj:0)
STE(4,109)                           5750.46988326801 	(obj:0)
STE(4,110)                           6747.23588660136 	(obj:0)
STE(4,111)                           7659.79922045135 	(obj:0)
STE(4,112)                           4705.90393924945 	(obj:0)
STE(4,113)                           5702.66994258277 	(obj:0)
STE(4,114)                           6615.23327643276 	(obj:0)
STE(4,115)                           5702.66994258271 	(obj:0)
STE(4,116)                           6699.43594591606 	(obj:0)
STE(4,117)                           7611.99927976605 	(obj:0)
STE(4,118)                           6728.13957585077 	(obj:0)
STE(4,119)                           7724.90557918412 	(obj:0)
STE(4,120)                           8637.46891303411 	(obj:0)
y1(4,100)                            897.089403000015 	(obj:0)
y1(4,103)                            897.089403000015 	(obj:0)
y1(4,106)                            897.089403000015 	(obj:0)
y1(4,109)                            897.089403000015 	(obj:0)
y1(4,112)                            897.089402999962 	(obj:0)
y1(4,115)                            897.089403000015 	(obj:0)
y1(4,118)                            897.089403000015 	(obj:0)
AVE(3)                                3399.3204933139 	(obj:0)
AVE(4)                               3353.21046544222 	(obj:0)
y2(4,99)                             960.592982999987 	(obj:0)
WG(2)                                3326.45170866643 	(obj:10)
WG(3)                                3399.32049331415 	(obj:10)
WG(4)                                3353.21046544222 	(obj:10)
BG(1)                                         3377.85 	(obj:10)
BG(2)                                594.454110235369 	(obj:10)
BG(3)                                920.287333156438 	(obj:10)
BG(4)                                24.6395345577802 	(obj:10)
WB(1)                                3134.60043707458 	(obj:0)
AVE(1)                               3134.60043707458 	(obj:0)
AVE(2)                               3326.45170866643 	(obj:0)
y1(1,1)                              897.089403000015 	(obj:0)
y1(2,4)                              1429.28410552373 	(obj:0)
y1(2,5)                              532.194702523764 	(obj:0)
y1(2,7)                              1429.28410552373 	(obj:0)
y1(2,8)                              532.194702523786 	(obj:0)
y1(2,10)                             1429.28410552373 	(obj:0)
y1(2,11)                             532.194702523764 	(obj:0)
y1(3,13)                             1820.01207294122 	(obj:0)
y1(3,14)                             922.922669941262 	(obj:0)
y1(3,16)                             1820.01207294122 	(obj:0)
y1(3,17)                             922.922669941262 	(obj:0)
y1(3,19)                             1820.01207294122 	(obj:0)
y1(3,20)                             922.922669941262 	(obj:0)
y1(3,22)                             1820.01207294122 	(obj:0)
y1(3,23)                             922.922669941262 	(obj:0)
y1(3,25)                             1820.01207294122 	(obj:0)
y1(3,26)                             922.922669941262 	(obj:0)
y1(3,28)                             1820.01207294122 	(obj:0)
y1(3,29)                             922.922669941262 	(obj:0)
y1(3,31)                             1820.01207294122 	(obj:0)
y1(3,32)                             922.922669941262 	(obj:0)
y1(3,34)                             1820.01207294122 	(obj:0)
y1(3,35)                             922.922669941262 	(obj:0)
y1(3,37)                             1820.01207294122 	(obj:0)
y1(3,38)                             922.922669941262 	(obj:0)
y1(4,40)                             897.089403000015 	(obj:0)
y1(4,43)                             897.089403000015 	(obj:0)
y1(4,46)                             897.089403000015 	(obj:0)
y1(4,49)                             897.089403000015 	(obj:0)
y1(4,52)                             897.089403000015 	(obj:0)
y1(4,55)                             897.089403000015 	(obj:0)
y1(4,58)                             897.089403000015 	(obj:0)
y1(4,61)                             897.089403000015 	(obj:0)
y1(4,64)                             897.089403000015 	(obj:0)
y1(4,67)                             897.089403000015 	(obj:0)
y1(4,70)                             897.089403000015 	(obj:0)
y1(4,73)                             897.089403000015 	(obj:0)
y1(4,76)                             897.089403000015 	(obj:0)
y1(4,79)                             897.089403000015 	(obj:0)
y1(4,82)                             897.089403000015 	(obj:0)
y1(4,85)                             897.089403000015 	(obj:0)
y1(4,88)                             897.089403000015 	(obj:0)
y1(4,91)                             897.089403000015 	(obj:0)
y1(4,94)                             897.089403000015 	(obj:0)
y1(4,97)                             897.089403000015 	(obj:0)
y2(1,3)                              960.592982999986 	(obj:0)
y2(2,6)                              406.676047720164 	(obj:0)
y2(2,9)                              406.676047720152 	(obj:0)
y2(2,12)                             406.676047720152 	(obj:0)
y2(4,42)                             960.592982999987 	(obj:0)
y2(4,45)                             960.592982999987 	(obj:0)
y2(4,48)                             960.592982999987 	(obj:0)
y2(4,51)                             960.592982999987 	(obj:0)
y2(4,54)                             960.592982999987 	(obj:0)
y2(4,57)                             960.592982999987 	(obj:0)
y2(4,60)                             960.592982999987 	(obj:0)
y2(4,63)                             960.592982999987 	(obj:0)
y2(4,66)                             960.592982999987 	(obj:0)
y2(4,69)                             960.592982999987 	(obj:0)
y2(4,72)                             960.592982999987 	(obj:0)
y2(4,75)                             960.592982999987 	(obj:0)
y2(4,78)                             960.592982999987 	(obj:0)
y2(4,81)                             960.592982999987 	(obj:0)
y2(4,84)                             960.592982999987 	(obj:0)
y2(4,87)                             960.592982999987 	(obj:0)
y2(4,90)                             960.592982999987 	(obj:0)
y2(4,93)                             960.592982999987 	(obj:0)
y2(4,96)                             960.592982999987 	(obj:0)
